
Gurobi 9.0.2 (win64) logging started Mon Oct 18 12:12:11 2021

Changed value of parameter LogFile to logs\CRVRP_5-2-5-100_3_0.LOG
   Prev:   Default: 
Changed value of parameter Seed to 1640691340
   Prev: 0  Min: 0  Max: 2000000000  Default: 0
Changed value of parameter Threads to 8
   Prev: 0  Min: 0  Max: 1024  Default: 0
Changed value of parameter TimeLimit to 7200.0
   Prev: inf  Min: 0.0  Max: inf  Default: inf
Changed value of parameter Cuts to 0
   Prev: -1  Min: -1  Max: 3  Default: -1
Changed value of parameter ScaleFlag to 1
   Prev: -1  Min: -1  Max: 3  Default: -1
Changed value of parameter NormAdjust to 0
   Prev: -1  Min: -1  Max: 3  Default: -1
Gurobi Optimizer version 9.0.2 build v9.0.2rc0 (win64)
Optimize a model with 493 rows, 622 columns and 2356 nonzeros
Model fingerprint: 0xd63f3799
Variable types: 34 continuous, 588 integer (299 binary)
Coefficient statistics:
  Matrix range     [1e+00, 1e+05]
  Objective range  [1e+00, 1e+00]
  Bounds range     [1e+00, 1e+04]
  RHS range        [1e+00, 1e+05]
Found heuristic solution: objective 202.6728787
Presolve removed 57 rows and 156 columns
Presolve time: 0.01s
Presolved: 436 rows, 466 columns, 1970 nonzeros

Warning: Thread count (8) is larger than core count (4)
         Reduce the value of the Threads parameter to improve performance

Variable types: 16 continuous, 450 integer (250 binary)

Root relaxation: objective 0.000000e+00, 69 iterations, 0.00 seconds

    Nodes    |    Current Node    |     Objective Bounds      |     Work
 Expl Unexpl |  Obj  Depth IntInf | Incumbent    BestBd   Gap | It/Node Time

     0     0    0.00000    0    4  202.67288    0.00000   100%     -    0s
H    0     0                     178.1442497    0.00000   100%     -    0s
     0     0    0.00000    0    4  178.14425    0.00000   100%     -    0s
H    0     0                       0.0000000    0.00000  0.00%     -    0s
     0     0    0.00000    0   21    0.00000    0.00000  0.00%     -    0s

Explored 1 nodes (388 simplex iterations) in 0.05 seconds
Thread count was 8 (of 4 available processors)

Solution count 3: 0 178.144 202.673 

Optimal solution found (tolerance 1.00e-04)
Best objective 0.000000000000e+00, best bound 0.000000000000e+00, gap 0.0000%
Discarded solution information

Gurobi 9.0.2 (win64) logging started Mon Oct 18 12:59:04 2021

Changed value of parameter LogFile to logs\CRVRP_5-2-5-100_3_0.LOG
   Prev:   Default: 
Changed value of parameter Seed to 1699172913
   Prev: 0  Min: 0  Max: 2000000000  Default: 0
Changed value of parameter Threads to 8
   Prev: 0  Min: 0  Max: 1024  Default: 0
Changed value of parameter TimeLimit to 7200.0
   Prev: inf  Min: 0.0  Max: inf  Default: inf
Changed value of parameter Cuts to 0
   Prev: -1  Min: -1  Max: 3  Default: -1
Changed value of parameter ScaleFlag to 1
   Prev: -1  Min: -1  Max: 3  Default: -1
Changed value of parameter NormAdjust to 0
   Prev: -1  Min: -1  Max: 3  Default: -1
Gurobi Optimizer version 9.0.2 build v9.0.2rc0 (win64)
Optimize a model with 493 rows, 622 columns and 2356 nonzeros
Model fingerprint: 0xd63f3799
Variable types: 34 continuous, 588 integer (299 binary)
Coefficient statistics:
  Matrix range     [1e+00, 1e+05]
  Objective range  [1e+00, 1e+00]
  Bounds range     [1e+00, 1e+04]
  RHS range        [1e+00, 1e+05]
Found heuristic solution: objective 185.2309947
Presolve removed 57 rows and 156 columns
Presolve time: 0.01s
Presolved: 436 rows, 466 columns, 1970 nonzeros

Warning: Thread count (8) is larger than core count (4)
         Reduce the value of the Threads parameter to improve performance

Variable types: 16 continuous, 450 integer (250 binary)

Root relaxation: objective 0.000000e+00, 65 iterations, 0.00 seconds

    Nodes    |    Current Node    |     Objective Bounds      |     Work
 Expl Unexpl |  Obj  Depth IntInf | Incumbent    BestBd   Gap | It/Node Time

     0     0    0.00000    0    4  185.23099    0.00000   100%     -    0s
     0     0    0.00000    0    4  185.23099    0.00000   100%     -    0s
H    0     0                       0.0000000    0.00000  0.00%     -    0s
     0     0    0.00000    0   17    0.00000    0.00000  0.00%     -    0s

Explored 1 nodes (290 simplex iterations) in 0.04 seconds
Thread count was 8 (of 4 available processors)

Solution count 2: 0 185.231 

Optimal solution found (tolerance 1.00e-04)
Best objective 0.000000000000e+00, best bound 0.000000000000e+00, gap 0.0000%
Discarded solution information

Gurobi 9.0.2 (win64) logging started Fri Oct 22 10:59:32 2021

Changed value of parameter LogFile to logs\CRVRP_5-2-5-100_3_0.LOG
   Prev:   Default: 
Changed value of parameter Seed to 276098546
   Prev: 0  Min: 0  Max: 2000000000  Default: 0
Changed value of parameter Threads to 2
   Prev: 0  Min: 0  Max: 1024  Default: 0
Changed value of parameter TimeLimit to 60.0
   Prev: inf  Min: 0.0  Max: inf  Default: inf
Changed value of parameter Symmetry to 2
   Prev: -1  Min: -1  Max: 2  Default: -1
Changed value of parameter Cuts to 2
   Prev: -1  Min: -1  Max: 3  Default: -1
Changed value of parameter PreDepRow to 1
   Prev: -1  Min: -1  Max: 1  Default: -1
Changed value of parameter ScaleFlag to 1
   Prev: -1  Min: -1  Max: 3  Default: -1
Changed value of parameter NormAdjust to 0
   Prev: -1  Min: -1  Max: 3  Default: -1
Gurobi Optimizer version 9.0.2 build v9.0.2rc0 (win64)
Optimize a model with 2235 rows, 1506 columns and 8946 nonzeros
Model fingerprint: 0x8fae4f9a
Variable types: 44 continuous, 1462 integer (978 binary)
Coefficient statistics:
  Matrix range     [1e+00, 1e+05]
  Objective range  [1e+00, 1e+00]
  Bounds range     [1e+00, 1e+04]
  RHS range        [1e+00, 1e+05]
Presolve removed 1778 rows and 1131 columns
Presolve time: 0.03s
Presolved: 457 rows, 375 columns, 1990 nonzeros
Variable types: 16 continuous, 359 integer (277 binary)

Root relaxation: objective 1.013221e+02, 131 iterations, 0.00 seconds

    Nodes    |    Current Node    |     Objective Bounds      |     Work
 Expl Unexpl |  Obj  Depth IntInf | Incumbent    BestBd   Gap | It/Node Time

     0     0  101.32212    0   11          -  101.32212      -     -    0s
     0     0  113.57212    0   29          -  113.57212      -     -    0s
     0     0  113.57212    0   27          -  113.57212      -     -    0s
     0     0  117.25605    0   43          -  117.25605      -     -    0s
     0     0  117.25605    0   47          -  117.25605      -     -    0s
     0     0  122.19456    0   58          -  122.19456      -     -    0s
     0     0  122.29837    0   59          -  122.29837      -     -    0s
     0     0  122.29837    0   59          -  122.29837      -     -    0s
     0     0  125.24600    0   50          -  125.24600      -     -    0s
     0     0  125.24600    0   43          -  125.24600      -     -    0s
     0     0  127.17851    0   55          -  127.17851      -     -    0s
     0     0  127.17851    0   50          -  127.17851      -     -    0s
     0     0  127.22159    0   58          -  127.22159      -     -    0s
     0     0  127.22159    0   51          -  127.22159      -     -    0s
H    0     0                     415.4984616  127.22159  69.4%     -    0s
H    0     0                     311.9239431  127.22159  59.2%     -    0s
     0     2  127.22159    0   43  311.92394  127.22159  59.2%     -    0s
H   29    34                     252.6010272  137.49264  45.6%  29.2    0s
H   32    34                     229.5183249  137.49264  40.1%  28.3    0s
H  732   369                     214.5896364  137.75791  35.8%  16.0    1s
H  743   358                     173.3255549  137.75791  20.5%  15.8    2s
H  980   368                     173.3255549  137.85508  20.5%  23.5    3s
  2135   385  155.82555   38   22  173.32555  138.07212  20.3%  28.1    5s
  6573  1067  147.15325   28   46  173.32555  138.07212  20.3%  34.4   10s
 10187  1607  139.12664   23   49  173.32555  138.07212  20.3%  35.9   15s
 14132  1444  169.92582   22   36  173.32555  155.82555  10.1%  35.3   20s
 20404  1654  158.19541   38   26  173.32555  158.19541  8.73%  31.6   25s

Gurobi 9.0.2 (win64) logging started Fri Oct 22 14:19:33 2021

Changed value of parameter LogFile to logs\CRVRP_5-2-5-100_3_0.LOG
   Prev:   Default: 
Changed value of parameter Seed to 1397537985
   Prev: 0  Min: 0  Max: 2000000000  Default: 0
Changed value of parameter Threads to 2
   Prev: 0  Min: 0  Max: 1024  Default: 0
Changed value of parameter TimeLimit to 600.0
   Prev: inf  Min: 0.0  Max: inf  Default: inf
Changed value of parameter Symmetry to 2
   Prev: -1  Min: -1  Max: 2  Default: -1
Changed value of parameter Cuts to 2
   Prev: -1  Min: -1  Max: 3  Default: -1
Changed value of parameter PreDepRow to 1
   Prev: -1  Min: -1  Max: 1  Default: -1
Changed value of parameter ScaleFlag to 1
   Prev: -1  Min: -1  Max: 3  Default: -1
Changed value of parameter NormAdjust to 0
   Prev: -1  Min: -1  Max: 3  Default: -1
Gurobi Optimizer version 9.0.2 build v9.0.2rc0 (win64)
Optimize a model with 2559 rows, 1506 columns and 9246 nonzeros
Model fingerprint: 0xb39afd42
Variable types: 44 continuous, 1462 integer (978 binary)
Coefficient statistics:
  Matrix range     [1e+00, 1e+05]
  Objective range  [1e+00, 1e+00]
  Bounds range     [1e+00, 1e+04]
  RHS range        [1e+00, 1e+05]
Presolve removed 837 rows and 506 columns
Presolve time: 0.00s

Explored 0 nodes (0 simplex iterations) in 0.00 seconds
Thread count was 1 (of 4 available processors)

Solution count 0

Model is infeasible
Best objective -, best bound -, gap -

Computing Irreducible Inconsistent Subsystem (IIS)...

      Constraints           Bounds       Runtime
     Min       Max       Min      Max
------------------------------------------------
        0     2559         0     1345         0s
        2        2         2        2         0s

IIS computed: 2 constraints, 2 bounds
IIS runtime: 0.03 seconds
Discarded solution information

Gurobi 9.0.2 (win64) logging started Mon Oct 25 10:29:12 2021

Changed value of parameter LogFile to logs\CRVRP_5-2-5-100_3_0.LOG
   Prev:   Default: 
Changed value of parameter Seed to 356469359
   Prev: 0  Min: 0  Max: 2000000000  Default: 0
Changed value of parameter Threads to 2
   Prev: 0  Min: 0  Max: 1024  Default: 0
Changed value of parameter TimeLimit to 600.0
   Prev: inf  Min: 0.0  Max: inf  Default: inf
Changed value of parameter Symmetry to 2
   Prev: -1  Min: -1  Max: 2  Default: -1
Changed value of parameter Cuts to 2
   Prev: -1  Min: -1  Max: 3  Default: -1
Changed value of parameter PreDepRow to 1
   Prev: -1  Min: -1  Max: 1  Default: -1
Changed value of parameter ScaleFlag to 1
   Prev: -1  Min: -1  Max: 3  Default: -1
Changed value of parameter NormAdjust to 0
   Prev: -1  Min: -1  Max: 3  Default: -1
Gurobi Optimizer version 9.0.2 build v9.0.2rc0 (win64)
Optimize a model with 2564 rows, 1506 columns and 9371 nonzeros
Model fingerprint: 0xffd55a6f
Variable types: 44 continuous, 1462 integer (978 binary)
Coefficient statistics:
  Matrix range     [1e+00, 1e+05]
  Objective range  [1e+00, 1e+00]
  Bounds range     [1e+00, 1e+04]
  RHS range        [1e+00, 1e+05]
Presolve removed 1570 rows and 949 columns
Presolve time: 0.00s

Explored 0 nodes (0 simplex iterations) in 0.00 seconds
Thread count was 1 (of 4 available processors)

Solution count 0

Model is infeasible
Best objective -, best bound -, gap -

Computing Irreducible Inconsistent Subsystem (IIS)...

      Constraints           Bounds       Runtime
     Min       Max       Min      Max
------------------------------------------------
        0     2564         0     1360         0s
       31       31         9        9         0s

IIS computed: 31 constraints, 9 bounds
IIS runtime: 0.20 seconds
Warning: linear constraint 4 and linear constraint 5 have the same name "MaxNumberRobotsStart[1]"
Discarded solution information

Gurobi 9.0.2 (win64) logging started Mon Oct 25 10:31:02 2021

Changed value of parameter LogFile to logs\CRVRP_5-2-5-100_3_0.LOG
   Prev:   Default: 
Changed value of parameter Seed to 619092403
   Prev: 0  Min: 0  Max: 2000000000  Default: 0
Changed value of parameter Threads to 2
   Prev: 0  Min: 0  Max: 1024  Default: 0
Changed value of parameter TimeLimit to 600.0
   Prev: inf  Min: 0.0  Max: inf  Default: inf
Changed value of parameter Symmetry to 2
   Prev: -1  Min: -1  Max: 2  Default: -1
Changed value of parameter Cuts to 2
   Prev: -1  Min: -1  Max: 3  Default: -1
Changed value of parameter PreDepRow to 1
   Prev: -1  Min: -1  Max: 1  Default: -1
Changed value of parameter ScaleFlag to 1
   Prev: -1  Min: -1  Max: 3  Default: -1
Changed value of parameter NormAdjust to 0
   Prev: -1  Min: -1  Max: 3  Default: -1
Gurobi Optimizer version 9.0.2 build v9.0.2rc0 (win64)
Optimize a model with 2564 rows, 1506 columns and 9381 nonzeros
Model fingerprint: 0xc93a8f9e
Variable types: 44 continuous, 1462 integer (978 binary)
Coefficient statistics:
  Matrix range     [1e+00, 1e+05]
  Objective range  [1e+00, 1e+00]
  Bounds range     [1e+00, 1e+04]
  RHS range        [1e+00, 1e+05]
Presolve removed 2307 rows and 1311 columns
Presolve time: 0.02s
Presolved: 257 rows, 195 columns, 1126 nonzeros
Variable types: 13 continuous, 182 integer (138 binary)

Root relaxation: objective 6.005011e+03, 128 iterations, 0.02 seconds

    Nodes    |    Current Node    |     Objective Bounds      |     Work
 Expl Unexpl |  Obj  Depth IntInf | Incumbent    BestBd   Gap | It/Node Time

     0     0 6005.01070    0    4          - 6005.01070      -     -    0s
H    0     0                    8887.5547661 6005.01070  32.4%     -    0s
H    0     0                    8854.9987070 6005.01070  32.2%     -    0s
H    0     0                    8762.5512884 6005.01070  31.5%     -    0s
H    0     0                    8752.8906722 6005.01070  31.4%     -    0s
     0     0 6007.09445    0   21 8752.89067 6007.09445  31.4%     -    0s
H    0     0                    6784.9175240 6007.09445  11.5%     -    0s
     0     0 6007.09445    0   24 6784.91752 6007.09445  11.5%     -    0s
     0     0 6009.97567    0   15 6784.91752 6009.97567  11.4%     -    0s
     0     0 6054.10340    0   41 6784.91752 6054.10340  10.8%     -    0s
H    0     0                    6739.3255549 6054.10340  10.2%     -    0s
     0     0 6054.24478    0   42 6739.32555 6054.24478  10.2%     -    0s
     0     0 6054.24478    0   42 6739.32555 6054.24478  10.2%     -    0s
     0     0 6230.28912    0   12 6739.32555 6230.28912  7.55%     -    0s
     0     0 6230.28912    0   20 6739.32555 6230.28912  7.55%     -    0s
     0     0 6230.64165    0   20 6739.32555 6230.64165  7.55%     -    0s
     0     0 6230.64165    0   19 6739.32555 6230.64165  7.55%     -    0s
     0     0 6230.64165    0   22 6739.32555 6230.64165  7.55%     -    0s
     0     0 6230.64165    0   18 6739.32555 6230.64165  7.55%     -    0s
     0     0 6230.64165    0    4 6739.32555 6230.64165  7.55%     -    0s
     0     0 6230.64165    0    9 6739.32555 6230.64165  7.55%     -    0s
     0     0 6230.64165    0    6 6739.32555 6230.64165  7.55%     -    0s
     0     0 6230.64165    0    6 6739.32555 6230.64165  7.55%     -    0s
     0     0 6230.64165    0    6 6739.32555 6230.64165  7.55%     -    0s
     0     0 6230.64165    0    9 6739.32555 6230.64165  7.55%     -    0s
     0     0 6230.64165    0   14 6739.32555 6230.64165  7.55%     -    0s
     0     0 6230.64165    0    2 6739.32555 6230.64165  7.55%     -    0s
     0     0 6230.64165    0    8 6739.32555 6230.64165  7.55%     -    0s
     0     0 6230.64165    0    8 6739.32555 6230.64165  7.55%     -    0s
     0     2 6230.64165    0    8 6739.32555 6230.64165  7.55%     -    0s

Cutting planes:
  Learned: 1
  Gomory: 2
  Cover: 14
  Implied bound: 21
  Projected implied bound: 1
  Clique: 2
  MIR: 8
  StrongCG: 1
  Flow cover: 54
  RLT: 20
  Relax-and-lift: 12

Explored 187 nodes (2263 simplex iterations) in 0.36 seconds
Thread count was 2 (of 4 available processors)

Solution count 6: 6739.33 6784.92 8752.89 ... 8887.55

Optimal solution found (tolerance 1.00e-04)
Best objective 6.739325554906e+03, best bound 6.739325554906e+03, gap 0.0000%
Discarded solution information

Gurobi 9.0.2 (win64) logging started Mon Oct 25 13:03:02 2021

Changed value of parameter LogFile to logs\CRVRP_5-2-5-100_3_0.LOG
   Prev:   Default: 
Changed value of parameter Seed to 1658667432
   Prev: 0  Min: 0  Max: 2000000000  Default: 0
Changed value of parameter Threads to 2
   Prev: 0  Min: 0  Max: 1024  Default: 0
Changed value of parameter TimeLimit to 60.0
   Prev: inf  Min: 0.0  Max: inf  Default: inf
Changed value of parameter Symmetry to 2
   Prev: -1  Min: -1  Max: 2  Default: -1
Changed value of parameter Cuts to 2
   Prev: -1  Min: -1  Max: 3  Default: -1
Changed value of parameter PreDepRow to 1
   Prev: -1  Min: -1  Max: 1  Default: -1
Changed value of parameter ScaleFlag to 1
   Prev: -1  Min: -1  Max: 3  Default: -1
Changed value of parameter NormAdjust to 0
   Prev: -1  Min: -1  Max: 3  Default: -1
Gurobi Optimizer version 9.0.2 build v9.0.2rc0 (win64)
Optimize a model with 2584 rows, 1506 columns and 9811 nonzeros
Model fingerprint: 0x42221b8c
Variable types: 44 continuous, 1462 integer (978 binary)
Coefficient statistics:
  Matrix range     [1e+00, 1e+06]
  Objective range  [1e+00, 1e+00]
  Bounds range     [1e+00, 1e+04]
  RHS range        [1e+00, 1e+06]
Presolve removed 898 rows and 853 columns
Presolve time: 0.00s

Explored 0 nodes (0 simplex iterations) in 0.00 seconds
Thread count was 1 (of 4 available processors)

Solution count 0

Model is infeasible
Best objective -, best bound -, gap -

Computing Irreducible Inconsistent Subsystem (IIS)...

      Constraints           Bounds       Runtime
     Min       Max       Min      Max
------------------------------------------------
        0     2584         0     1360         0s
       18       18        12       12         0s

IIS computed: 18 constraints, 12 bounds
IIS runtime: 0.16 seconds
Discarded solution information

Gurobi 9.0.2 (win64) logging started Fri Oct 29 14:21:22 2021

Changed value of parameter LogFile to logs\CRVRP_5-2-5-100_3_0.LOG
   Prev:   Default: 
Changed value of parameter Seed to 1520694526
   Prev: 0  Min: 0  Max: 2000000000  Default: 0
Changed value of parameter Threads to 2
   Prev: 0  Min: 0  Max: 1024  Default: 0
Changed value of parameter TimeLimit to 60.0
   Prev: inf  Min: 0.0  Max: inf  Default: inf
Changed value of parameter Symmetry to 2
   Prev: -1  Min: -1  Max: 2  Default: -1
Changed value of parameter Cuts to 2
   Prev: -1  Min: -1  Max: 3  Default: -1
Changed value of parameter PreDepRow to 1
   Prev: -1  Min: -1  Max: 1  Default: -1
Changed value of parameter ScaleFlag to 1
   Prev: -1  Min: -1  Max: 3  Default: -1
Changed value of parameter NormAdjust to 0
   Prev: -1  Min: -1  Max: 3  Default: -1
Gurobi Optimizer version 9.0.2 build v9.0.2rc0 (win64)
Optimize a model with 942 rows, 626 columns and 3911 nonzeros
Model fingerprint: 0x2b2278ab
Variable types: 28 continuous, 598 integer (402 binary)
Coefficient statistics:
  Matrix range     [1e+00, 1e+06]
  Objective range  [1e+00, 1e+00]
  Bounds range     [1e+00, 1e+04]
  RHS range        [1e+00, 1e+06]
Presolve removed 772 rows and 501 columns
Presolve time: 0.02s
Presolved: 170 rows, 125 columns, 811 nonzeros
Variable types: 9 continuous, 116 integer (91 binary)
Found heuristic solution: objective 8950.8803028

Root relaxation: objective 3.642336e+03, 79 iterations, 0.00 seconds

    Nodes    |    Current Node    |     Objective Bounds      |     Work
 Expl Unexpl |  Obj  Depth IntInf | Incumbent    BestBd   Gap | It/Node Time

     0     0 3642.33622    0    5 8950.88030 3642.33622  59.3%     -    0s
H    0     0                    6908.9241616 3642.33622  47.3%     -    0s
     0     0 3669.90150    0   25 6908.92416 3669.90150  46.9%     -    0s
H    0     0                    6186.9664509 3669.90150  40.7%     -    0s
     0     0 3670.43830    0   31 6186.96645 3670.43830  40.7%     -    0s
     0     0 3670.43830    0   31 6186.96645 3670.43830  40.7%     -    0s
     0     0 3778.27840    0   24 6186.96645 3778.27840  38.9%     -    0s
H    0     0                    4503.9308725 3778.27840  16.1%     -    0s
     0     0 3782.99163    0   22 4503.93087 3782.99163  16.0%     -    0s
     0     0 3827.32985    0   19 4503.93087 3827.32985  15.0%     -    0s
     0     0 3827.32985    0   20 4503.93087 3827.32985  15.0%     -    0s
     0     0 3827.32985    0   20 4503.93087 3827.32985  15.0%     -    0s
     0     0 3827.32985    0   12 4503.93087 3827.32985  15.0%     -    0s
     0     0 3827.32985    0   12 4503.93087 3827.32985  15.0%     -    0s
     0     0 3827.32985    0    8 4503.93087 3827.32985  15.0%     -    0s
     0     0 3827.32985    0    8 4503.93087 3827.32985  15.0%     -    0s
     0     0 3827.32985    0    8 4503.93087 3827.32985  15.0%     -    0s
     0     0 3827.32985    0    8 4503.93087 3827.32985  15.0%     -    0s
     0     0 3827.32985    0   11 4503.93087 3827.32985  15.0%     -    0s
     0     0 3827.34810    0   24 4503.93087 3827.34810  15.0%     -    0s
H    0     0                    4503.9194817 3827.34810  15.0%     -    0s
     0     0 3827.34810    0   26 4503.91948 3827.34810  15.0%     -    0s
     0     0 3828.55801    0   32 4503.91948 3828.55801  15.0%     -    0s
H    0     0                    4500.5555788 3828.55801  14.9%     -    0s
     0     0 3828.81567    0   32 4500.55558 3828.81567  14.9%     -    0s

Gurobi 9.0.2 (win64) logging started Fri Oct 29 14:29:18 2021

Changed value of parameter LogFile to logs\CRVRP_5-2-5-100_3_0.LOG
   Prev:   Default: 
Changed value of parameter Seed to 127921060
   Prev: 0  Min: 0  Max: 2000000000  Default: 0
Changed value of parameter Threads to 2
   Prev: 0  Min: 0  Max: 1024  Default: 0
Changed value of parameter TimeLimit to 60.0
   Prev: inf  Min: 0.0  Max: inf  Default: inf
Changed value of parameter Symmetry to 2
   Prev: -1  Min: -1  Max: 2  Default: -1
Changed value of parameter Cuts to 2
   Prev: -1  Min: -1  Max: 3  Default: -1
Changed value of parameter PreDepRow to 1
   Prev: -1  Min: -1  Max: 1  Default: -1
Changed value of parameter ScaleFlag to 1
   Prev: -1  Min: -1  Max: 3  Default: -1
Changed value of parameter NormAdjust to 0
   Prev: -1  Min: -1  Max: 3  Default: -1
Gurobi Optimizer version 9.0.2 build v9.0.2rc0 (win64)
Optimize a model with 939 rows, 626 columns and 3908 nonzeros
Model fingerprint: 0x6e397d0b
Variable types: 28 continuous, 598 integer (402 binary)
Coefficient statistics:
  Matrix range     [1e+00, 1e+06]
  Objective range  [1e+00, 1e+00]
  Bounds range     [1e+00, 1e+04]
  RHS range        [1e+00, 1e+06]
Presolve removed 167 rows and 193 columns
Presolve time: 0.00s

Explored 0 nodes (0 simplex iterations) in 0.00 seconds
Thread count was 1 (of 4 available processors)

Solution count 0

Model is infeasible
Best objective -, best bound -, gap -

IIS computed: 1 constraints, 0 bounds
IIS runtime: 0.00 seconds
Discarded solution information

Gurobi 9.0.2 (win64) logging started Fri Oct 29 14:33:51 2021

Changed value of parameter LogFile to logs\CRVRP_5-2-5-100_3_0.LOG
   Prev:   Default: 
Changed value of parameter Seed to 198772299
   Prev: 0  Min: 0  Max: 2000000000  Default: 0
Changed value of parameter Threads to 2
   Prev: 0  Min: 0  Max: 1024  Default: 0
Changed value of parameter TimeLimit to 60.0
   Prev: inf  Min: 0.0  Max: inf  Default: inf
Changed value of parameter Symmetry to 2
   Prev: -1  Min: -1  Max: 2  Default: -1
Changed value of parameter Cuts to 2
   Prev: -1  Min: -1  Max: 3  Default: -1
Changed value of parameter PreDepRow to 1
   Prev: -1  Min: -1  Max: 1  Default: -1
Changed value of parameter ScaleFlag to 1
   Prev: -1  Min: -1  Max: 3  Default: -1
Changed value of parameter NormAdjust to 0
   Prev: -1  Min: -1  Max: 3  Default: -1
Gurobi Optimizer version 9.0.2 build v9.0.2rc0 (win64)
Optimize a model with 941 rows, 626 columns and 3910 nonzeros
Model fingerprint: 0x9d99f221
Variable types: 28 continuous, 598 integer (402 binary)
Coefficient statistics:
  Matrix range     [1e+00, 1e+06]
  Objective range  [1e+00, 1e+00]
  Bounds range     [1e+00, 1e+04]
  RHS range        [1e+00, 1e+06]
Presolve removed 244 rows and 220 columns
Presolve time: 0.00s

Explored 0 nodes (0 simplex iterations) in 0.00 seconds
Thread count was 1 (of 4 available processors)

Solution count 0

Model is infeasible
Best objective -, best bound -, gap -

Computing Irreducible Inconsistent Subsystem (IIS)...

      Constraints           Bounds       Runtime
     Min       Max       Min      Max
------------------------------------------------
        0      941         0      559         0s
        4        4         0        0         0s

IIS computed: 4 constraints, 0 bounds
IIS runtime: 0.02 seconds
Discarded solution information

Gurobi 9.0.2 (win64) logging started Tue Nov  2 14:45:01 2021

Changed value of parameter LogFile to logs\CRVRP_5-2-5-100_3_0.LOG
   Prev:   Default: 
Changed value of parameter Seed to 726720235
   Prev: 0  Min: 0  Max: 2000000000  Default: 0
Changed value of parameter Threads to 2
   Prev: 0  Min: 0  Max: 1024  Default: 0
Changed value of parameter TimeLimit to 1800.0
   Prev: inf  Min: 0.0  Max: inf  Default: inf
Changed value of parameter Symmetry to 2
   Prev: -1  Min: -1  Max: 2  Default: -1
Changed value of parameter Cuts to 2
   Prev: -1  Min: -1  Max: 3  Default: -1
Changed value of parameter PreDepRow to 1
   Prev: -1  Min: -1  Max: 1  Default: -1
Changed value of parameter ScaleFlag to 1
   Prev: -1  Min: -1  Max: 3  Default: -1
Changed value of parameter NormAdjust to 0
   Prev: -1  Min: -1  Max: 3  Default: -1
Gurobi Optimizer version 9.0.2 build v9.0.2rc0 (win64)
Optimize a model with 940 rows, 626 columns and 3854 nonzeros
Model fingerprint: 0xf2626bbf
Variable types: 28 continuous, 598 integer (402 binary)
Coefficient statistics:
  Matrix range     [1e+00, 1e+06]
  Objective range  [1e+00, 1e+00]
  Bounds range     [1e+00, 1e+04]
  RHS range        [1e+00, 1e+06]
Presolve removed 674 rows and 448 columns
Presolve time: 0.03s
Presolved: 266 rows, 178 columns, 1265 nonzeros
Variable types: 11 continuous, 167 integer (145 binary)
Found heuristic solution: objective 7500.8320433

Root relaxation: objective 4.737585e+03, 190 iterations, 0.01 seconds

    Nodes    |    Current Node    |     Objective Bounds      |     Work
 Expl Unexpl |  Obj  Depth IntInf | Incumbent    BestBd   Gap | It/Node Time

     0     0 4737.58488    0   32 7500.83204 4737.58488  36.8%     -    0s
     0     0 4744.60432    0   47 7500.83204 4744.60432  36.7%     -    0s
H    0     0                    7497.6433515 4744.60432  36.7%     -    0s
     0     0 4744.60432    0   50 7497.64335 4744.60432  36.7%     -    0s
     0     0 4771.25744    0   54 7497.64335 4771.25744  36.4%     -    0s
     0     0 4771.42196    0   55 7497.64335 4771.42196  36.4%     -    0s
     0     0 4779.64850    0   58 7497.64335 4779.64850  36.3%     -    0s
     0     0 4779.64850    0   60 7497.64335 4779.64850  36.3%     -    0s
     0     0 4790.98692    0   61 7497.64335 4790.98692  36.1%     -    0s
     0     0 4792.70112    0   57 7497.64335 4792.70112  36.1%     -    0s
     0     0 4793.01235    0   61 7497.64335 4793.01235  36.1%     -    0s
     0     0 4793.04963    0   62 7497.64335 4793.04963  36.1%     -    0s
     0     0 4799.08054    0   52 7497.64335 4799.08054  36.0%     -    0s
H    0     0                    6755.6930380 4799.08054  29.0%     -    0s
     0     0 4799.08054    0   54 6755.69304 4799.08054  29.0%     -    0s
     0     0 4810.19425    0   59 6755.69304 4810.19425  28.8%     -    0s
     0     0 4810.32012    0   57 6755.69304 4810.32012  28.8%     -    0s
     0     0 4810.36511    0   58 6755.69304 4810.36511  28.8%     -    0s
     0     0 4810.36511    0   59 6755.69304 4810.36511  28.8%     -    0s
     0     0 4810.87033    0   60 6755.69304 4810.87033  28.8%     -    0s
     0     0 4811.43423    0   63 6755.69304 4811.43423  28.8%     -    0s
     0     0 4811.44640    0   64 6755.69304 4811.44640  28.8%     -    0s
     0     0 4813.26830    0   50 6755.69304 4813.26830  28.8%     -    1s
H    0     0                    6732.9633801 4813.26830  28.5%     -    1s
     0     0 4813.45324    0   55 6732.96338 4813.45324  28.5%     -    1s
     0     0 4813.65194    0   58 6732.96338 4813.65194  28.5%     -    1s
     0     0 4813.65194    0   60 6732.96338 4813.65194  28.5%     -    1s
     0     0 4814.35925    0   61 6732.96338 4814.35925  28.5%     -    1s
     0     0 4814.35925    0   61 6732.96338 4814.35925  28.5%     -    1s
     0     0 4816.21129    0   58 6732.96338 4816.21129  28.5%     -    1s
     0     0 4816.59407    0   62 6732.96338 4816.59407  28.5%     -    1s
     0     0 4816.59636    0   64 6732.96338 4816.59636  28.5%     -    1s
     0     0 4817.17171    0   56 6732.96338 4817.17171  28.5%     -    1s
     0     0 4817.17570    0   59 6732.96338 4817.17570  28.5%     -    1s
     0     0 4825.46706    0   62 6732.96338 4825.46706  28.3%     -    1s
     0     0 4826.23939    0   60 6732.96338 4826.23939  28.3%     -    1s
     0     0 4826.38634    0   60 6732.96338 4826.38634  28.3%     -    1s
     0     0 4826.38634    0   61 6732.96338 4826.38634  28.3%     -    1s
     0     0 4827.52986    0   58 6732.96338 4827.52986  28.3%     -    1s
     0     0 4828.01131    0   60 6732.96338 4828.01131  28.3%     -    1s
     0     0 4828.05870    0   61 6732.96338 4828.05870  28.3%     -    1s
     0     0 4828.08949    0   59 6732.96338 4828.08949  28.3%     -    1s
     0     0 4828.08949    0   61 6732.96338 4828.08949  28.3%     -    1s
     0     0 4831.68687    0   52 6732.96338 4831.68687  28.2%     -    1s
     0     0 4831.96000    0   58 6732.96338 4831.96000  28.2%     -    1s
     0     0 4832.06191    0   59 6732.96338 4832.06191  28.2%     -    1s
     0     0 4832.17845    0   62 6732.96338 4832.17845  28.2%     -    1s
     0     0 4832.19662    0   64 6732.96338 4832.19662  28.2%     -    1s
     0     0 4832.97302    0   59 6732.96338 4832.97302  28.2%     -    1s
     0     0 4833.00854    0   60 6732.96338 4833.00854  28.2%     -    1s
     0     0 4833.10830    0   62 6732.96338 4833.10830  28.2%     -    1s
     0     0 4833.10957    0   63 6732.96338 4833.10957  28.2%     -    1s
     0     0 4833.18646    0   64 6732.96338 4833.18646  28.2%     -    2s
     0     0 4833.65201    0   60 6732.96338 4833.65201  28.2%     -    2s
     0     0 4833.93934    0   63 6732.96338 4833.93934  28.2%     -    2s
     0     0 4833.94765    0   63 6732.96338 4833.94765  28.2%     -    2s
     0     0 4835.24335    0   62 6732.96338 4835.24335  28.2%     -    2s
     0     0 4835.44574    0   60 6732.96338 4835.44574  28.2%     -    2s
     0     0 4835.58407    0   66 6732.96338 4835.58407  28.2%     -    2s
     0     0 4835.64192    0   65 6732.96338 4835.64192  28.2%     -    2s
     0     0 4835.96695    0   62 6732.96338 4835.96695  28.2%     -    2s
     0     0 4835.98879    0   60 6732.96338 4835.98879  28.2%     -    2s
     0     0 4837.26994    0   60 6732.96338 4837.26994  28.2%     -    2s
     0     0 4837.36495    0   62 6732.96338 4837.36495  28.2%     -    2s
     0     0 4837.36938    0   63 6732.96338 4837.36938  28.2%     -    2s
     0     0 4837.80593    0   57 6732.96338 4837.80593  28.1%     -    2s
     0     0 4837.96715    0   60 6732.96338 4837.96715  28.1%     -    2s
     0     0 4838.00487    0   61 6732.96338 4838.00487  28.1%     -    2s
     0     0 4839.66435    0   57 6732.96338 4839.66435  28.1%     -    2s
     0     0 4840.38896    0   62 6732.96338 4840.38896  28.1%     -    2s
     0     0 4840.46400    0   62 6732.96338 4840.46400  28.1%     -    2s
     0     0 4842.42116    0   61 6732.96338 4842.42116  28.1%     -    3s
     0     0 4843.14181    0   66 6732.96338 4843.14181  28.1%     -    3s
     0     0 4843.17903    0   67 6732.96338 4843.17903  28.1%     -    3s
     0     0 4843.91501    0   66 6732.96338 4843.91501  28.1%     -    3s
     0     0 4843.97453    0   69 6732.96338 4843.97453  28.1%     -    3s
     0     0 4845.03680    0   67 6732.96338 4845.03680  28.0%     -    3s
     0     0 4845.54838    0   64 6732.96338 4845.54838  28.0%     -    3s
     0     0 4845.58273    0   67 6732.96338 4845.58273  28.0%     -    3s
     0     0 4845.70280    0   69 6732.96338 4845.70280  28.0%     -    3s
     0     0 4845.70304    0   71 6732.96338 4845.70304  28.0%     -    3s
     0     0 4846.26945    0   64 6732.96338 4846.26945  28.0%     -    3s
     0     0 4846.36862    0   64 6732.96338 4846.36862  28.0%     -    3s
     0     0 4847.52022    0   63 6732.96338 4847.52022  28.0%     -    3s
     0     0 4847.62989    0   63 6732.96338 4847.62989  28.0%     -    3s
     0     0 4847.63933    0   64 6732.96338 4847.63933  28.0%     -    3s
     0     0 4847.63933    0   64 6732.96338 4847.63933  28.0%     -    3s
     0     2 4847.63933    0   64 6732.96338 4847.63933  28.0%     -    3s
*  305    74              14    6469.3314381 5142.03595  20.5%  49.7    4s
*  353    87              19    6425.1466704 5213.61129  18.9%  45.0    4s
*  359    87              20    6412.1107604 5213.61129  18.7%  44.2    4s
   472   105 infeasible   17      6412.11076 5505.37784  14.1%  37.6    5s
*  494   105              15    6364.4248755 5505.37784  13.5%  36.7    5s

Cutting planes:
  Learned: 11
  Gomory: 10
  Cover: 6
  Implied bound: 46
  Projected implied bound: 9
  MIR: 145
  Flow cover: 205
  Inf proof: 4
  Zero half: 15
  RLT: 63
  Relax-and-lift: 26

Explored 1249 nodes (31512 simplex iterations) in 5.70 seconds
Thread count was 2 (of 4 available processors)

Solution count 8: 6364.42 6412.11 6425.15 ... 7500.83

Optimal solution found (tolerance 1.00e-04)
Best objective 6.364424875507e+03, best bound 6.364424875507e+03, gap 0.0000%
Discarded solution information

Gurobi 9.0.2 (win64) logging started Tue Nov  2 14:50:46 2021

Changed value of parameter LogFile to logs\CRVRP_5-2-5-100_3_0.LOG
   Prev:   Default: 
Changed value of parameter Seed to 1733454792
   Prev: 0  Min: 0  Max: 2000000000  Default: 0
Changed value of parameter Threads to 2
   Prev: 0  Min: 0  Max: 1024  Default: 0
Changed value of parameter TimeLimit to 1800.0
   Prev: inf  Min: 0.0  Max: inf  Default: inf
Changed value of parameter Symmetry to 2
   Prev: -1  Min: -1  Max: 2  Default: -1
Changed value of parameter Cuts to 2
   Prev: -1  Min: -1  Max: 3  Default: -1
Changed value of parameter PreDepRow to 1
   Prev: -1  Min: -1  Max: 1  Default: -1
Changed value of parameter ScaleFlag to 1
   Prev: -1  Min: -1  Max: 3  Default: -1
Changed value of parameter NormAdjust to 0
   Prev: -1  Min: -1  Max: 3  Default: -1
Gurobi Optimizer version 9.0.2 build v9.0.2rc0 (win64)
Optimize a model with 940 rows, 626 columns and 3854 nonzeros
Model fingerprint: 0x904d3839
Variable types: 28 continuous, 598 integer (402 binary)
Coefficient statistics:
  Matrix range     [1e+00, 1e+06]
  Objective range  [1e+00, 1e+00]
  Bounds range     [1e+00, 1e+04]
  RHS range        [1e+00, 1e+06]
Presolve removed 673 rows and 448 columns
Presolve time: 0.02s
Presolved: 267 rows, 178 columns, 1268 nonzeros
Variable types: 11 continuous, 167 integer (145 binary)
Found heuristic solution: objective 843.0079834

Root relaxation: objective 5.255849e+02, 157 iterations, 0.00 seconds

    Nodes    |    Current Node    |     Objective Bounds      |     Work
 Expl Unexpl |  Obj  Depth IntInf | Incumbent    BestBd   Gap | It/Node Time

     0     0  525.58488    0   22  843.00798  525.58488  37.7%     -    0s
     0     0  533.32292    0   47  843.00798  533.32292  36.7%     -    0s
H    0     0                     837.7972292  533.32292  36.3%     -    0s
     0     0  533.32292    0   46  837.79723  533.32292  36.3%     -    0s
     0     0  545.81282    0   50  837.79723  545.81282  34.9%     -    0s
H    0     0                     821.0840358  545.81282  33.5%     -    0s
     0     0  545.82608    0   50  821.08404  545.82608  33.5%     -    0s
     0     0  549.81567    0   44  821.08404  549.81567  33.0%     -    0s
     0     0  550.05785    0   46  821.08404  550.05785  33.0%     -    0s
     0     0  550.25030    0   48  821.08404  550.25030  33.0%     -    0s
     0     0  550.26012    0   50  821.08404  550.26012  33.0%     -    0s
     0     0  550.26195    0   50  821.08404  550.26195  33.0%     -    0s
     0     0  554.27780    0   44  821.08404  554.27780  32.5%     -    0s
     0     0  554.53516    0   50  821.08404  554.53516  32.5%     -    0s
     0     0  554.60693    0   51  821.08404  554.60693  32.5%     -    0s
     0     0  554.61757    0   51  821.08404  554.61757  32.5%     -    0s
     0     0  558.00197    0   60  821.08404  558.00197  32.0%     -    0s
     0     0  558.25034    0   57  821.08404  558.25034  32.0%     -    0s
     0     0  558.28544    0   56  821.08404  558.28544  32.0%     -    0s
     0     0  558.28774    0   56  821.08404  558.28774  32.0%     -    0s
     0     0  558.38988    0   54  821.08404  558.38988  32.0%     -    0s
H    0     0                     815.9178497  558.38988  31.6%     -    0s
     0     0  558.43008    0   62  815.91785  558.43008  31.6%     -    0s
     0     0  558.43008    0   62  815.91785  558.43008  31.6%     -    0s
     0     0  558.45658    0   61  815.91785  558.45658  31.6%     -    0s
     0     0  558.45658    0   57  815.91785  558.45658  31.6%     -    0s
H    0     0                     799.1083788  558.45658  30.1%     -    0s
H    0     0                     790.6615852  558.45658  29.4%     -    0s
     0     2  558.45734    0   54  790.66159  558.45734  29.4%     -    0s
*   52    25              16     778.3657375  561.54927  27.9%  37.2    0s
*  470   107              18     763.4787651  640.82230  16.1%  15.3    1s
*  743    96              16     757.9100120  660.82230  12.8%  14.6    1s
*  811    76              18     756.9633801  675.28224  10.8%  14.2    1s
H  997    47                     746.8183704  714.73663  4.30%  12.6    1s

Cutting planes:
  Learned: 3
  Gomory: 6
  Cover: 23
  Implied bound: 56
  Projected implied bound: 2
  Clique: 1
  MIR: 40
  StrongCG: 1
  Flow cover: 148
  GUB cover: 4
  Inf proof: 2
  Zero half: 15
  RLT: 69
  Relax-and-lift: 40

Explored 1291 nodes (16832 simplex iterations) in 1.59 seconds
Thread count was 2 (of 4 available processors)

Solution count 10: 746.818 756.963 757.91 ... 837.797

Optimal solution found (tolerance 1.00e-04)
Best objective 7.468183704185e+02, best bound 7.468183704185e+02, gap 0.0000%
Discarded solution information
